# Solution for model micodag
# Objective value = 2.1895251286307975e+01
s_0_1 0
s_1_0 0
s_1_2 0
s_2_1 0
s_1_3 0
s_3_1 5.5030218645605333e-01
s_2_3 0
s_3_2 3.9680424234288036e-01
s_3_4 0
s_4_3 0
s_3_5 0
s_5_3 0
s_3_6 0
s_6_3 2.3629807476687610e+00
s_3_7 0
s_7_3 0
s_3_8 0
s_8_3 2.3629807476687610e+00
s_3_9 0
s_9_3 2.3629807476687610e+00
s_4_5 0
s_5_4 0
s_4_6 0
s_6_4 2.9158078709423885e-01
s_4_7 0
s_7_4 0
s_4_8 0
s_8_4 3.3978262161219774e-01
s_5_6 0
s_6_5 2.1152290853047573e-01
s_5_13 0
s_13_5 0.49986037782743
s_7_8 0
s_8_7 3.7567163219707145e-01
s_8_12 0
s_12_8 6.7015880049197651e-01
s_10_11 0
s_11_10 4.3381188577698993e-01
s_11_12 0
s_12_11 0
s_11_14 0
s_14_11 0
s_11_16 0
s_16_11 0
s_11_17 0
s_17_11 2.4402789557009541e-01
s_12_14 0
s_14_12 0
s_12_16 0
s_16_12 0
s_12_17 0
s_17_12 4.2047676532698630e-01
s_14_16 0
s_16_14 0
s_14_17 0
s_17_14 3.2969394577890876e-01
s_15_16 0
s_16_15 7.5641824383225287e-01
s_16_17 0
s_17_16 4.1468110390601010e-01
s_0_0 6.6354301841585661e-01
s_1_1 1.9996291306588518e+00
s_2_2 1.0129806118111933e+00
s_3_3 2.3629807476687610e+00
s_4_4 0.911882351660654
s_5_5 6.4251312598697963e-01
s_6_6 7.0674745456926980e-01
s_7_7 6.8883932740729570e-01
s_8_8 6.2967707671068940e-01
s_9_9 6.8047255697338915e-01
s_10_10 1.0022889937153452e+00
s_11_11 6.3625100498892673e-01
s_12_12 1.0194146708741143e+00
s_13_13 9.7459584365487006e-01
s_14_14 2.0248447837348511e+00
s_15_15 6.5022878274592344e-01
s_16_16 1.0677303350931335e+00
s_17_17 6.7720484968887762e-01
Gamma_0_0 8.1458149894031917e-01
Gamma_0_1 0
Gamma_0_2 0
Gamma_0_3 0
Gamma_0_4 0
Gamma_0_5 0
Gamma_0_6 0
Gamma_0_7 0
Gamma_0_8 0
Gamma_0_9 0
Gamma_0_10 0
Gamma_0_11 0
Gamma_0_12 0
Gamma_0_13 0
Gamma_0_14 0
Gamma_0_15 0
Gamma_0_16 0
Gamma_0_17 0
Gamma_1_0 0
Gamma_1_1 1.4140824341808549e+00
Gamma_1_2 0
Gamma_1_3 0
Gamma_1_4 0
Gamma_1_5 0
Gamma_1_6 0
Gamma_1_7 0
Gamma_1_8 0
Gamma_1_9 0
Gamma_1_10 0
Gamma_1_11 0
Gamma_1_12 0
Gamma_1_13 0
Gamma_1_14 0
Gamma_1_15 0
Gamma_1_16 0
Gamma_1_17 0
Gamma_2_0 0
Gamma_2_1 0
Gamma_2_2 1.0064693794702317e+00
Gamma_2_3 0
Gamma_2_4 0
Gamma_2_5 0
Gamma_2_6 0
Gamma_2_7 0
Gamma_2_8 0
Gamma_2_9 0
Gamma_2_10 0
Gamma_2_11 0
Gamma_2_12 0
Gamma_2_13 0
Gamma_2_14 0
Gamma_2_15 0
Gamma_2_16 0
Gamma_2_17 0
Gamma_3_0 0
Gamma_3_1 -7.4182355479996276e-01
Gamma_3_2 6.2992399727497339e-01
Gamma_3_3 8.0876082859394471e-01
Gamma_3_4 0
Gamma_3_5 0
Gamma_3_6 0
Gamma_3_7 0
Gamma_3_8 0
Gamma_3_9 0
Gamma_3_10 0
Gamma_3_11 0
Gamma_3_12 0
Gamma_3_13 0
Gamma_3_14 0
Gamma_3_15 0
Gamma_3_16 0
Gamma_3_17 0
Gamma_4_0 0
Gamma_4_1 0
Gamma_4_2 0
Gamma_4_3 0
Gamma_4_4 9.5492531208501030e-01
Gamma_4_5 0
Gamma_4_6 0
Gamma_4_7 0
Gamma_4_8 0
Gamma_4_9 0
Gamma_4_10 0
Gamma_4_11 0
Gamma_4_12 0
Gamma_4_13 0
Gamma_4_14 0
Gamma_4_15 0
Gamma_4_16 0
Gamma_4_17 0
Gamma_5_0 0
Gamma_5_1 0
Gamma_5_2 0
Gamma_5_3 0
Gamma_5_4 0
Gamma_5_5 8.0156916481797136e-01
Gamma_5_6 0
Gamma_5_7 0
Gamma_5_8 0
Gamma_5_9 0
Gamma_5_10 0
Gamma_5_11 0
Gamma_5_12 0
Gamma_5_13 0
Gamma_5_14 0
Gamma_5_15 0
Gamma_5_16 0
Gamma_5_17 0
Gamma_6_0 0
Gamma_6_1 0
Gamma_6_2 0
Gamma_6_3 6.0757400695383768e-01
Gamma_6_4 0.539982209979402
Gamma_6_5 -4.5991619729085004e-01
Gamma_6_6 8.4068273121866277e-01
Gamma_6_7 0
Gamma_6_8 0
Gamma_6_9 0
Gamma_6_10 0
Gamma_6_11 0
Gamma_6_12 0
Gamma_6_13 0
Gamma_6_14 0
Gamma_6_15 0
Gamma_6_16 0
Gamma_6_17 0
Gamma_7_0 0
Gamma_7_1 0
Gamma_7_2 0
Gamma_7_3 0
Gamma_7_4 0
Gamma_7_5 0
Gamma_7_6 0
Gamma_7_7 8.2996344944057365e-01
Gamma_7_8 0
Gamma_7_9 0
Gamma_7_10 0
Gamma_7_11 0
Gamma_7_12 0
Gamma_7_13 0
Gamma_7_14 0
Gamma_7_15 0
Gamma_7_16 0
Gamma_7_17 0
Gamma_8_0 0
Gamma_8_1 0
Gamma_8_2 0
Gamma_8_3 6.2538084073056843e-01
Gamma_8_4 -5.8290875925156427e-01
Gamma_8_5 0
Gamma_8_6 0
Gamma_8_7 -6.1292057576579351e-01
Gamma_8_8 7.9352194469383763e-01
Gamma_8_9 0
Gamma_8_10 0
Gamma_8_11 0
Gamma_8_12 0
Gamma_8_13 0
Gamma_8_14 0
Gamma_8_15 0
Gamma_8_16 0
Gamma_8_17 0
Gamma_9_0 0
Gamma_9_1 0
Gamma_9_2 0
Gamma_9_3 6.3642904148999813e-01
Gamma_9_4 0
Gamma_9_5 0
Gamma_9_6 0
Gamma_9_7 0
Gamma_9_8 0
Gamma_9_9 8.2490760511307548e-01
Gamma_9_10 0
Gamma_9_11 0
Gamma_9_12 0
Gamma_9_13 0
Gamma_9_14 0
Gamma_9_15 0
Gamma_9_16 0
Gamma_9_17 0
Gamma_10_0 0
Gamma_10_1 0
Gamma_10_2 0
Gamma_10_3 0
Gamma_10_4 0
Gamma_10_5 0
Gamma_10_6 0
Gamma_10_7 0
Gamma_10_8 0
Gamma_10_9 0
Gamma_10_10 1.0011438426696462e+00
Gamma_10_11 0
Gamma_10_12 0
Gamma_10_13 0
Gamma_10_14 0
Gamma_10_15 0
Gamma_10_16 0
Gamma_10_17 0
Gamma_11_0 0
Gamma_11_1 0
Gamma_11_2 0
Gamma_11_3 0
Gamma_11_4 0
Gamma_11_5 0
Gamma_11_6 0
Gamma_11_7 0
Gamma_11_8 0
Gamma_11_9 0
Gamma_11_10 -6.5864397497964744e-01
Gamma_11_11 7.9765343664333765e-01
Gamma_11_12 0
Gamma_11_13 0
Gamma_11_14 0
Gamma_11_15 0
Gamma_11_16 0
Gamma_11_17 0
Gamma_12_0 0
Gamma_12_1 0
Gamma_12_2 0
Gamma_12_3 0
Gamma_12_4 0
Gamma_12_5 0
Gamma_12_6 0
Gamma_12_7 0
Gamma_12_8 -8.1863227427946983e-01
Gamma_12_9 0
Gamma_12_10 0
Gamma_12_11 0
Gamma_12_12 1.0096606711534892e+00
Gamma_12_13 0
Gamma_12_14 0
Gamma_12_15 0
Gamma_12_16 0
Gamma_12_17 0
Gamma_13_0 0
Gamma_13_1 0
Gamma_13_2 0
Gamma_13_3 0
Gamma_13_4 0
Gamma_13_5 7.0700804650826288e-01
Gamma_13_6 0
Gamma_13_7 0
Gamma_13_8 0
Gamma_13_9 0
Gamma_13_10 0
Gamma_13_11 0
Gamma_13_12 0
Gamma_13_13 9.8721620917348707e-01
Gamma_13_14 0
Gamma_13_15 0
Gamma_13_16 0
Gamma_13_17 0
Gamma_14_0 0
Gamma_14_1 0
Gamma_14_2 0
Gamma_14_3 0
Gamma_14_4 0
Gamma_14_5 0
Gamma_14_6 0
Gamma_14_7 0
Gamma_14_8 0
Gamma_14_9 0
Gamma_14_10 0
Gamma_14_11 0
Gamma_14_12 0
Gamma_14_13 0
Gamma_14_14 1.4229704085942374e+00
Gamma_14_15 0
Gamma_14_16 0
Gamma_14_17 0
Gamma_15_0 0
Gamma_15_1 0
Gamma_15_2 0
Gamma_15_3 0
Gamma_15_4 0
Gamma_15_5 0
Gamma_15_6 0
Gamma_15_7 0
Gamma_15_8 0
Gamma_15_9 0
Gamma_15_10 0
Gamma_15_11 0
Gamma_15_12 0
Gamma_15_13 0
Gamma_15_14 0
Gamma_15_15 8.0636764738295630e-01
Gamma_15_16 0
Gamma_15_17 0
Gamma_16_0 0
Gamma_16_1 0
Gamma_16_2 0
Gamma_16_3 0
Gamma_16_4 0
Gamma_16_5 0
Gamma_16_6 0
Gamma_16_7 0
Gamma_16_8 0
Gamma_16_9 0
Gamma_16_10 0
Gamma_16_11 0
Gamma_16_12 0
Gamma_16_13 0
Gamma_16_14 0
Gamma_16_15 -8.6972308456902125e-01
Gamma_16_16 1.0333103769406042e+00
Gamma_16_17 0
Gamma_17_0 0
Gamma_17_1 0
Gamma_17_2 0
Gamma_17_3 0
Gamma_17_4 0
Gamma_17_5 0
Gamma_17_6 0
Gamma_17_7 0
Gamma_17_8 0
Gamma_17_9 0
Gamma_17_10 0
Gamma_17_11 -4.9399179706761931e-01
Gamma_17_12 -0.648441797948734
Gamma_17_13 0
Gamma_17_14 5.7418981685406878e-01
Gamma_17_15 0
Gamma_17_16 -6.4395737739854375e-01
Gamma_17_17 8.2292457108101813e-01
psi_0 0
psi_1 4
psi_2 4
psi_3 3
psi_4 3
psi_5 1
psi_6 0
psi_7 3
psi_8 2
psi_9 0
psi_10 2
psi_11 1
psi_12 1
psi_13 0
psi_14 1
psi_15 2
psi_16 1
psi_17 0
g_0_0 0
g_0_1 0
g_0_2 0
g_0_3 0
g_0_4 0
g_0_5 0
g_0_6 0
g_0_7 0
g_0_8 0
g_0_9 0
g_0_10 0
g_0_11 0
g_0_12 0
g_0_13 0
g_0_14 0
g_0_15 0
g_0_16 0
g_0_17 0
g_1_0 0
g_1_1 0
g_1_2 0
g_1_3 0
g_1_4 0
g_1_5 0
g_1_6 0
g_1_7 0
g_1_8 0
g_1_9 0
g_1_10 0
g_1_11 0
g_1_12 0
g_1_13 0
g_1_14 0
g_1_15 0
g_1_16 0
g_1_17 0
g_2_0 0
g_2_1 0
g_2_2 0
g_2_3 0
g_2_4 0
g_2_5 0
g_2_6 0
g_2_7 0
g_2_8 0
g_2_9 0
g_2_10 0
g_2_11 0
g_2_12 0
g_2_13 0
g_2_14 0
g_2_15 0
g_2_16 0
g_2_17 0
g_3_0 0
g_3_1 1
g_3_2 1
g_3_3 0
g_3_4 0
g_3_5 0
g_3_6 0
g_3_7 0
g_3_8 0
g_3_9 0
g_3_10 0
g_3_11 0
g_3_12 0
g_3_13 0
g_3_14 0
g_3_15 0
g_3_16 0
g_3_17 0
g_4_0 0
g_4_1 0
g_4_2 0
g_4_3 0
g_4_4 0
g_4_5 0
g_4_6 0
g_4_7 0
g_4_8 0
g_4_9 0
g_4_10 0
g_4_11 0
g_4_12 0
g_4_13 0
g_4_14 0
g_4_15 0
g_4_16 0
g_4_17 0
g_5_0 0
g_5_1 0
g_5_2 0
g_5_3 0
g_5_4 0
g_5_5 0
g_5_6 0
g_5_7 0
g_5_8 0
g_5_9 0
g_5_10 0
g_5_11 0
g_5_12 0
g_5_13 0
g_5_14 0
g_5_15 0
g_5_16 0
g_5_17 0
g_6_0 0
g_6_1 0
g_6_2 0
g_6_3 1
g_6_4 1
g_6_5 1
g_6_6 0
g_6_7 0
g_6_8 0
g_6_9 0
g_6_10 0
g_6_11 0
g_6_12 0
g_6_13 0
g_6_14 0
g_6_15 0
g_6_16 0
g_6_17 0
g_7_0 0
g_7_1 0
g_7_2 0
g_7_3 0
g_7_4 0
g_7_5 0
g_7_6 0
g_7_7 0
g_7_8 0
g_7_9 0
g_7_10 0
g_7_11 0
g_7_12 0
g_7_13 0
g_7_14 0
g_7_15 0
g_7_16 0
g_7_17 0
g_8_0 0
g_8_1 0
g_8_2 0
g_8_3 1
g_8_4 1
g_8_5 0
g_8_6 0
g_8_7 1
g_8_8 0
g_8_9 0
g_8_10 0
g_8_11 0
g_8_12 0
g_8_13 0
g_8_14 0
g_8_15 0
g_8_16 0
g_8_17 0
g_9_0 0
g_9_1 0
g_9_2 0
g_9_3 1
g_9_4 0
g_9_5 0
g_9_6 0
g_9_7 0
g_9_8 0
g_9_9 0
g_9_10 0
g_9_11 0
g_9_12 0
g_9_13 0
g_9_14 0
g_9_15 0
g_9_16 0
g_9_17 0
g_10_0 0
g_10_1 0
g_10_2 0
g_10_3 0
g_10_4 0
g_10_5 0
g_10_6 0
g_10_7 0
g_10_8 0
g_10_9 0
g_10_10 0
g_10_11 0
g_10_12 0
g_10_13 0
g_10_14 0
g_10_15 0
g_10_16 0
g_10_17 0
g_11_0 0
g_11_1 0
g_11_2 0
g_11_3 0
g_11_4 0
g_11_5 0
g_11_6 0
g_11_7 0
g_11_8 0
g_11_9 0
g_11_10 1
g_11_11 0
g_11_12 0
g_11_13 0
g_11_14 0
g_11_15 0
g_11_16 0
g_11_17 0
g_12_0 0
g_12_1 0
g_12_2 0
g_12_3 0
g_12_4 0
g_12_5 0
g_12_6 0
g_12_7 0
g_12_8 1
g_12_9 0
g_12_10 0
g_12_11 0
g_12_12 0
g_12_13 0
g_12_14 0
g_12_15 0
g_12_16 0
g_12_17 0
g_13_0 0
g_13_1 0
g_13_2 0
g_13_3 0
g_13_4 0
g_13_5 1
g_13_6 0
g_13_7 0
g_13_8 0
g_13_9 0
g_13_10 0
g_13_11 0
g_13_12 0
g_13_13 0
g_13_14 0
g_13_15 0
g_13_16 0
g_13_17 0
g_14_0 0
g_14_1 0
g_14_2 0
g_14_3 0
g_14_4 0
g_14_5 0
g_14_6 0
g_14_7 0
g_14_8 0
g_14_9 0
g_14_10 0
g_14_11 0
g_14_12 0
g_14_13 0
g_14_14 0
g_14_15 0
g_14_16 0
g_14_17 0
g_15_0 0
g_15_1 0
g_15_2 0
g_15_3 0
g_15_4 0
g_15_5 0
g_15_6 0
g_15_7 0
g_15_8 0
g_15_9 0
g_15_10 0
g_15_11 0
g_15_12 0
g_15_13 0
g_15_14 0
g_15_15 0
g_15_16 0
g_15_17 0
g_16_0 0
g_16_1 0
g_16_2 0
g_16_3 0
g_16_4 0
g_16_5 0
g_16_6 0
g_16_7 0
g_16_8 0
g_16_9 0
g_16_10 0
g_16_11 0
g_16_12 0
g_16_13 0
g_16_14 0
g_16_15 1
g_16_16 0
g_16_17 0
g_17_0 0
g_17_1 0
g_17_2 0
g_17_3 0
g_17_4 0
g_17_5 0
g_17_6 0
g_17_7 0
g_17_8 0
g_17_9 0
g_17_10 0
g_17_11 1
g_17_12 1
g_17_13 0
g_17_14 1
g_17_15 0
g_17_16 1
g_17_17 0
T_0 4.1016159171876154e-01
T_1 -6.9296172869424311e-01
T_2 -1.2897085706484290e-02
T_3 4.2450408791933114e-01
T_4 9.2244297601155267e-02
T_5 4.4236803286972304e-01
T_6 3.4708188401482687e-01
T_7 3.7274723195945114e-01
T_8 4.6254816765858209e-01
T_9 3.8496778544312349e-01
T_10 -2.2863779601038914e-03
T_11 4.5216213156827223e-01
T_12 -1.9228610495858334e-02
T_13 2.5732413249514252e-02
T_14 -7.0549304761325971e-01
T_15 4.3043100456530681e-01
T_16 -6.5535213424567473e-02
T_17 3.8978146736533859e-01
